Route 1: 4 154 92 142 131 47 153 28 6 163 49 14 63 149 120 135 162 171 132 78 130 187 150 174 97 176 58 113 69 191 134 144 71 88 87 17 12 33 173 81 194 55 16 119 161 195 107 70 29 139 66 9 89 82 64 30 67
Route 2: 140 152 15 156 48 24 57 133 147 40 169 180 43 124 196 190 184 98 72 136 27 198 111 22 44 90 41 145 79 178 10 73 13 96 8 2 76 60 185 1 117 75 32 65 151 116
Route 3: 84 42 167 68 7 3 61 160 114 52 112 109 189 125 106 101 192 50 137 123 115 121 11 34 157 83 175 110 18 177
Route 4: 165 199 197 172 181 164 35 170 62 26 159 25 104 77 20 46 138 186 91 129 200 95 179 102 36 158
Route 5: 37 54 85 155 127 118 105 99 94 188 23 5 93 74 39
Route 6: 183 100 182 31 45 59 143 168 128 56 108 38 53 21 166 86 126 193 122 141 80 19 146 148 51 103
Vehicles: 6
Distance: 6707.65
